p tw 68 79
1 2
2 13
3 64
4 5
5 6
6 7
6 9
7 8
8 9
9 10
10 11
11 12
11 15
12 14
13 24
14 15
15 16
16 17
17 18
17 20
18 19
19 20
20 21
21 22
22 23
23 25
23 27
24 35
25 26
26 64
27 28
28 29
29 30
29 32
30 31
31 64
32 33
33 34
34 36
34 38
35 46
35 4
36 37
37 38
38 39
39 40
40 41
40 47
41 42
42 43
43 44
44 45
45 47
46 57
47 48
48 49
49 50
49 54
50 51
51 52
51 54
52 53
53 54
53 59
54 55
55 56
56 58
57 66
58 64
59 60
60 61
61 62
61 64
62 63
63 64
64 65
66 67
67 68
68 3
